proyfinal/src/viki/013/experimentInOfficeAgust.take6.output/e8fd8d19-4bf8-459c-92cc-abed050ffdcb.als.out
Reading from standard input... Use '--help' for help.
============================[ Problem Statistics ]=============================
|                                                                             |
|  Number of variables:         87638                                         |
|  Number of clauses:          161767                                         |
|  Parse time:                   0.04 s                                       |
|                                                                             |
============================[ Search Statistics ]==============================
| Conflicts |          ORIGINAL         |          LEARNT          | Progress |
|           |    Vars  Clauses Literals |    Limit  Clauses Lit/Cl |          |
===============================================================================
|       100 |   62369   105148   262701 |    38554      100     13 | 28.833 % |
|       250 |   62369   105148   262701 |    42409      250     36 | 28.833 % |
|       475 |   62344   105046   262462 |    46650      474     46 | 28.862 % |
|       812 |   62324   104926   262196 |    51315      590     45 | 28.885 % |
|      1318 |   62324   104926   262196 |    56447     1096     53 | 28.885 % |
|      2077 |   49938    69632   175267 |    62092     1822     50 | 43.018 % |
|      3216 |   49301    67461   169535 |    68301     2308     45 | 43.745 % |
|      4924 |   48872    65525   164938 |    75131     3976     49 | 44.234 % |
|      7486 |   48632    64481   162419 |    82644     6491     48 | 44.508 % |
|     11330 |   48309    63133   159227 |    90908     9945     45 | 44.877 % |
===============================================================================
restarts              : 59
conflicts             : 13184          (9394 /sec)
decisions             : 38466          (0.00 % random) (27409 /sec)
propagations          : 16061448       (11444628 /sec)
conflict literals     : 556678         (43.18 % deleted)
Memory used           : 30.81 MB
CPU time              : 1.40341 s

UNSATISFIABLE
